 200 81 
 84 46 33 7 75 18 93 47 75 40 55 27 
 26 89 68 10 67 78 61 60 27 11 48 48 
 87 98 2 88 11 50 40 5 29 47 16 30 
 42 68 60 67 83 26 90 55 15 37 94 90 
 99 10 55 79 71 55 16 73 85 33 37 6 
 50 77 65 58 94 86 84 92 72 15 72 59 
 76 44 8 12 9 35 87 91 89 
 75 
 1 2 3 4 5 6 7 8 10 11 12 13 
 15 16 17 18 19 20 21 22 23 24 25 27 
 28 29 30 31 32 33 34 35 36 39 40 41 
 42 43 44 45 46 47 48 49 51 52 53 54 
 55 56 57 58 59 60 61 62 63 64 65 66 
 67 68 69 70 71 72 73 74 75 76 77 78 
 79 80 81 
 59 
 1 2 3 4 5 6 7 9 10 11 12 16 
 19 20 21 23 25 26 27 29 30 31 34 35 
 36 37 38 40 41 42 43 44 47 48 50 51 
 52 53 54 55 56 57 58 59 61 63 64 65 
 67 70 71 72 73 74 76 77 79 80 81 
 19 
 1 3 13 14 20 25 26 31 39 41 42 45 
 47 49 50 60 64 72 77 
 65 
 1 2 3 4 6 9 10 11 13 14 15 16 
 17 18 19 21 23 24 25 27 28 29 30 31 
 32 33 34 36 37 38 39 40 41 42 43 45 
 46 47 48 49 52 54 55 56 57 58 61 62 
 63 64 65 66 67 68 69 70 71 72 74 75 
 76 77 79 80 81 
 14 
 1 4 11 14 15 20 32 36 37 51 53 61 
 66 75 
 67 
 1 2 3 4 5 7 8 10 11 12 13 14 
 15 17 18 19 20 21 22 23 24 25 26 27 
 28 29 30 31 32 33 34 35 37 38 39 40 
 42 43 45 46 47 49 51 52 53 55 56 57 
 59 60 61 62 63 64 65 66 67 68 69 70 
 71 72 73 74 75 77 78 
 66 
 1 2 3 4 5 6 7 8 9 10 11 12 
 13 14 17 19 21 23 24 25 26 27 28 29 
 30 32 33 34 35 36 37 38 39 40 41 42 
 43 44 45 46 47 48 50 51 52 53 55 56 
 57 58 59 61 62 63 64 65 67 68 70 71 
 72 74 76 77 80 81 
 34 
 3 5 12 14 16 17 18 19 21 24 25 26 
 31 32 34 38 43 49 52 53 55 56 59 60 
 63 65 66 69 74 75 76 77 78 81 
 77 
 1 3 4 5 6 7 8 9 10 11 12 13 
 14 15 16 18 19 20 21 22 23 24 25 26 
 27 28 29 30 31 32 33 35 36 37 38 39 
 40 41 42 43 44 45 46 47 48 49 50 51 
 52 53 54 55 56 57 58 59 60 61 62 63 
 64 65 66 67 68 69 70 71 72 74 75 76 
 77 78 79 80 81 
 63 
 1 3 4 5 6 7 9 10 11 12 14 16 
 17 18 19 20 21 22 24 25 27 28 30 31 
 32 33 34 35 36 37 40 42 44 45 47 49 
 50 51 52 56 57 58 59 60 62 63 64 65 
 66 67 68 70 71 72 73 74 75 76 77 78 
 79 80 81 
 74 
 1 2 3 5 6 7 8 9 10 11 12 13 
 14 15 16 17 18 19 20 21 22 23 24 25 
 26 27 28 29 30 31 32 33 34 35 36 37 
 38 39 40 41 42 43 44 45 47 48 49 50 
 52 53 54 56 57 58 59 61 62 63 64 66 
 67 68 69 70 72 73 74 75 76 77 78 79 
 80 81 
 78 
 1 2 3 4 5 6 7 8 9 10 11 12 
 13 14 15 16 17 18 19 20 21 22 23 25 
 26 27 28 29 30 32 33 34 35 36 37 38 
 39 40 41 42 43 44 45 46 47 48 49 50 
 51 52 53 54 55 56 57 58 59 60 61 62 
 63 64 65 66 67 68 70 71 72 73 74 75 
 76 77 78 79 80 81 
 37 
 3 6 8 9 11 14 16 21 25 26 27 33 
 35 37 38 42 43 44 46 47 50 57 58 59 
 60 62 63 66 67 69 71 73 74 77 78 80 
 81 
 27 
 1 2 3 4 5 7 13 14 15 21 25 27 
 30 35 39 40 41 42 43 48 53 54 59 66 
 76 78 79 
 48 
 2 4 5 7 8 11 12 13 14 15 17 18 
 19 20 21 23 31 32 35 36 38 40 41 44 
 45 46 48 50 51 55 56 57 58 59 60 62 
 64 65 67 69 70 71 72 73 75 76 77 78 
 15 
 1 2 3 11 12 18 21 24 28 32 48 56 
 71 79 80 
 18 
 1 2 4 5 12 16 22 24 25 27 30 35 
 48 49 58 65 79 80 
 74 
 1 2 3 4 5 6 7 8 9 10 11 12 
 14 15 16 17 18 19 20 21 23 24 25 26 
 27 28 29 30 31 32 34 35 36 37 38 39 
 40 41 42 43 44 45 46 47 48 49 50 51 
 53 54 55 56 57 58 59 60 61 62 63 64 
 65 67 68 69 70 72 73 74 75 76 77 79 
 80 81 
 27 
 3 5 7 8 9 14 17 18 20 22 25 26 
 28 30 33 35 43 49 50 53 60 61 64 65 
 66 68 78 
 79 
 1 2 3 4 5 6 7 8 9 10 11 12 
 13 14 15 16 17 18 19 20 21 22 23 24 
 26 27 28 29 30 31 32 33 34 35 36 37 
 38 39 40 41 42 43 44 45 46 48 49 50 
 51 52 53 54 55 56 57 58 59 60 61 62 
 63 64 65 66 67 68 69 70 71 72 73 74 
 75 76 77 78 79 80 81 
 62 
 1 2 3 5 7 8 9 10 11 12 13 14 
 15 16 17 18 19 20 22 23 25 26 27 30 
 32 33 34 35 36 37 38 42 43 45 46 47 
 48 49 50 52 54 55 57 58 59 60 61 65 
 66 67 68 69 71 72 73 74 75 76 77 78 
 80 81 
 37 
 1 5 9 10 11 13 16 17 22 26 27 29 
 30 31 32 34 36 37 38 39 43 44 47 48 
 49 50 52 53 56 58 60 62 68 69 72 75 
 79 
 6 
 30 49 55 61 68 77 
 59 
 1 4 6 7 8 9 10 11 12 13 14 15 
 16 17 20 21 23 24 26 27 30 31 32 33 
 34 35 36 37 38 39 40 41 42 45 46 48 
 49 50 52 54 57 58 62 63 64 66 67 68 
 69 70 71 72 75 76 77 78 79 80 81 
 15 
 4 17 19 21 30 34 42 44 45 48 60 62 
 71 78 81 
 21 
 4 12 15 17 19 28 33 38 40 41 43 51 
 59 60 62 63 64 69 70 73 75 
 79 
 1 2 3 4 5 6 7 8 9 10 12 13 
 14 15 16 17 18 19 20 21 22 23 24 25 
 26 27 28 29 30 31 32 33 34 35 36 37 
 38 39 40 41 42 43 44 45 46 47 48 49 
 50 51 52 53 54 55 56 57 58 59 60 61 
 62 63 64 65 66 67 68 69 70 71 72 73 
 74 75 76 77 78 80 81 
 46 
 1 2 5 7 8 9 10 12 14 16 17 18 
 19 20 22 23 24 28 29 31 32 33 40 41 
 42 43 47 48 49 52 57 58 60 61 63 64 
 66 68 69 71 72 73 75 78 79 81 
 28 
 2 8 10 11 13 17 18 20 23 24 26 31 
 35 36 38 43 49 50 51 52 62 63 64 71 
 73 74 80 81 
 36 
 1 3 4 5 8 12 15 16 17 18 22 23 
 26 27 31 34 36 39 41 43 46 48 51 52 
 55 57 58 62 66 68 70 73 75 77 78 79 
 81 
 1 2 3 4 5 6 7 8 9 10 11 12 
 13 14 15 16 17 18 19 20 21 22 23 24 
 25 26 27 28 29 30 31 32 33 34 35 36 
 37 38 39 40 41 42 43 44 45 46 47 48 
 49 50 51 52 53 54 55 56 57 58 59 60 
 61 62 63 64 65 66 67 68 69 70 71 72 
 73 74 75 76 77 78 79 80 81 
 15 
 1 2 8 16 19 33 37 39 52 54 60 61 
 63 77 78 
 42 
 2 4 8 9 10 11 12 14 15 17 18 22 
 26 31 32 33 36 39 41 42 44 45 48 49 
 51 52 55 56 57 59 61 63 65 67 69 70 
 71 73 74 75 76 81 
 30 
 1 6 8 16 20 22 24 25 26 27 28 29 
 31 34 42 43 46 56 57 59 61 62 63 66 
 67 70 74 75 78 81 
 4 
 25 39 48 68 
 68 
 1 2 3 5 6 8 9 10 11 12 15 16 
 17 19 21 22 24 25 26 27 28 29 32 33 
 34 35 36 37 38 39 40 41 42 43 44 45 
 46 48 49 50 51 52 53 54 55 56 57 58 
 59 60 61 62 63 64 65 66 67 68 69 70 
 72 73 74 75 76 77 78 79 
 29 
 2 4 5 7 9 10 11 13 16 18 19 21 
 27 28 30 31 34 36 38 39 46 50 52 55 
 60 61 62 67 79 
 13 
 2 5 11 13 15 22 31 34 38 65 67 68 
 77 
 67 
 1 2 4 6 7 8 9 10 12 13 14 15 
 17 18 19 20 21 22 23 24 25 26 27 28 
 29 31 32 33 34 35 36 37 38 39 41 42 
 43 47 48 49 51 52 53 54 55 56 58 59 
 60 61 62 63 64 65 66 67 70 71 72 74 
 75 76 77 78 79 80 81 
 38 
 3 5 6 7 11 12 14 16 18 21 23 25 
 26 28 34 37 39 40 41 42 46 48 50 52 
 53 54 61 63 64 65 66 69 70 71 73 75 
 76 78 
 33 
 3 4 6 8 9 10 24 27 31 32 33 36 
 37 39 43 45 46 49 51 52 53 55 57 59 
 60 61 62 67 73 75 76 77 78 
 28 
 1 2 5 7 12 16 17 21 26 28 31 33 
 35 37 42 47 49 54 55 56 62 66 70 74 
 76 79 80 81 
 39 
 3 4 5 7 8 10 11 17 20 21 22 23 
 25 27 28 30 31 32 39 41 42 48 51 52 
 53 54 55 56 57 58 60 62 64 70 72 75 
 76 77 81 
 71 
 1 3 5 7 8 9 10 11 12 13 14 15 
 16 17 18 19 20 21 22 24 25 26 27 28 
 29 30 31 32 33 34 35 36 37 38 39 40 
 41 42 43 44 45 46 47 48 49 50 51 53 
 54 55 56 57 58 59 60 61 62 63 64 65 
 66 68 69 70 71 72 73 74 76 78 81 
 38 
 1 8 10 13 14 15 17 18 19 22 24 26 
 29 33 35 36 39 40 43 48 49 50 52 55 
 56 57 58 60 61 62 63 70 71 72 73 75 
 76 78 
 47 
 2 3 4 8 9 10 11 12 14 16 18 20 
 23 24 25 27 28 29 30 32 35 39 40 41 
 43 44 45 46 47 48 49 50 54 59 60 62 
 63 64 66 68 69 72 73 76 79 80 81 
 43 
 1 3 4 5 9 11 12 13 16 17 20 23 
 30 33 35 37 38 39 40 42 47 48 51 52 
 53 54 56 57 59 60 61 63 64 68 69 70 
 71 72 74 76 77 78 79 
 67 
 1 2 3 4 5 6 7 8 9 11 12 14 
 15 17 18 19 21 22 23 25 26 27 28 29 
 30 31 32 33 34 35 37 38 40 41 42 43 
 44 45 46 47 48 49 50 51 52 54 55 56 
 57 58 59 60 61 62 63 64 66 69 71 72 
 73 75 77 78 79 80 81 
 62 
 1 2 4 5 6 7 8 9 10 11 12 13 
 14 17 18 19 21 23 24 25 26 27 29 31 
 32 33 34 35 36 37 38 39 41 42 44 45 
 46 47 49 51 53 54 55 58 59 60 61 62 
 63 65 66 67 69 70 71 73 74 75 76 77 
 79 81 
 33 
 2 3 4 8 9 10 15 16 18 19 20 23 
 24 26 27 28 32 35 38 41 43 45 46 47 
 49 54 56 62 68 69 71 74 79 
 43 
 1 2 8 14 15 18 20 22 23 25 26 27 
 28 30 31 32 33 34 35 39 40 42 43 44 
 46 47 49 51 52 54 60 61 63 66 67 68 
 70 71 73 74 78 79 81 
 67 
 1 3 4 5 6 8 9 10 12 13 14 15 
 16 17 18 19 21 22 23 24 26 27 29 30 
 31 32 33 34 35 36 38 39 40 41 42 43 
 44 45 46 47 48 51 52 53 54 55 56 57 
 58 59 60 61 63 64 65 67 68 70 72 73 
 75 76 77 78 79 80 81 
 72 
 2 3 4 5 7 8 9 10 11 12 13 14 
 15 16 17 18 19 20 21 22 23 24 25 26 
 27 28 29 31 32 33 34 35 36 37 38 39 
 40 41 42 44 45 46 47 48 49 50 51 52 
 53 55 57 58 59 60 61 62 63 64 65 66 
 68 69 70 71 73 75 76 77 78 79 80 81 
 55 
 1 2 4 5 8 9 10 11 14 15 17 18 
 19 21 22 23 24 26 28 29 31 32 34 36 
 39 40 41 42 43 44 46 47 50 52 53 54 
 55 57 60 62 64 65 66 67 70 71 72 73 
 74 75 77 78 79 80 81 
 62 
 1 2 3 5 6 7 8 9 10 11 13 14 
 15 16 18 19 21 23 24 25 27 28 29 30 
 32 34 35 36 37 38 40 42 43 45 46 49 
 50 51 54 55 56 57 58 59 60 61 62 63 
 64 65 67 69 70 72 74 75 76 77 78 79 
 80 81 
 11 
 10 12 20 36 38 39 61 64 68 73 78 
 42 
 1 4 5 6 10 15 16 17 19 21 22 23 
 24 26 29 30 31 32 33 36 37 40 43 44 
 45 47 50 51 52 55 60 64 65 66 67 68 
 69 70 71 72 75 81 
 38 
 2 6 10 11 13 17 18 19 21 24 25 29 
 30 31 32 34 36 38 41 43 45 46 47 52 
 53 54 58 60 61 62 65 67 68 69 70 71 
 79 81 
 44 
 1 3 4 5 6 8 11 13 14 15 16 18 
 19 22 24 26 27 32 34 35 40 44 45 46 
 48 49 50 51 53 55 59 60 63 64 65 66 
 69 70 71 73 74 76 77 78 
 67 
 1 2 3 4 5 6 7 8 11 12 13 14 
 15 17 18 20 21 22 23 25 26 27 28 29 
 30 31 32 33 34 36 37 38 39 40 41 42 
 43 44 45 46 48 49 50 51 52 54 55 56 
 57 59 60 61 62 63 64 65 67 69 70 71 
 72 73 74 77 79 80 81 
 8 
 27 32 34 43 63 71 73 78 
 21 
 9 11 14 18 22 26 27 34 36 39 40 44 
 45 47 48 50 56 66 69 71 76 
 4 
 3 8 19 76 
 45 
 1 3 4 5 6 7 8 9 14 15 18 19 
 22 23 26 27 28 33 34 35 36 37 39 42 
 45 46 48 49 50 51 52 55 57 61 64 65 
 66 67 69 71 74 75 76 78 81 
 16 
 4 12 18 20 32 34 39 46 49 60 63 68 
 70 75 77 79 
 31 
 1 4 9 11 15 18 20 23 24 27 28 30 
 37 38 39 42 44 47 48 52 53 54 57 61 
 62 63 66 67 71 75 77 
 75 
 1 2 3 4 5 6 7 8 9 10 11 12 
 13 14 15 16 17 18 19 20 21 22 23 24 
 25 26 27 28 29 30 31 33 35 36 37 38 
 39 40 41 42 43 44 45 46 47 48 49 50 
 51 52 53 54 56 57 58 59 60 61 64 65 
 66 67 68 69 70 71 72 73 74 75 76 77 
 79 80 81 
 28 
 2 3 7 12 13 16 20 22 26 27 29 30 
 32 37 38 40 41 43 44 46 52 55 65 69 
 72 73 76 79 
 13 
 3 4 9 13 19 21 27 39 46 51 65 68 
 69 
 65 
 3 4 5 7 8 9 10 12 13 14 15 18 
 19 20 22 24 26 27 28 29 31 32 33 34 
 35 36 37 39 40 41 42 43 44 45 46 47 
 48 49 50 51 52 53 54 55 56 58 59 61 
 62 63 66 67 68 69 70 72 73 74 75 76 
 77 78 79 80 81 
 58 
 1 2 5 6 8 9 10 13 14 16 18 19 
 20 22 23 24 25 27 28 32 35 37 38 39 
 42 43 44 45 46 47 48 51 52 53 54 55 
 56 57 58 59 61 62 63 64 65 66 67 68 
 69 70 71 72 73 74 77 78 80 81 
 18 
 8 10 11 12 15 18 20 29 32 33 42 47 
 48 63 68 70 78 80 
 28 
 1 8 11 14 17 22 24 28 30 31 34 35 
 36 38 42 43 47 51 54 55 58 60 66 68 
 69 73 76 77 
 8 
 3 5 18 33 35 59 67 79 
 66 
 1 3 4 5 6 7 8 9 10 11 12 13 
 14 15 16 17 18 20 21 22 24 25 26 27 
 28 29 30 31 33 34 36 37 39 40 42 43 
 44 45 46 47 48 49 51 52 53 54 55 56 
 60 61 62 63 65 66 67 68 70 71 73 75 
 76 77 78 79 80 81 
 26 
 1 3 4 12 15 16 21 25 27 29 31 32 
 33 36 38 39 45 48 51 52 54 57 62 71 
 72 75 
 43 
 2 4 7 9 10 11 14 16 17 19 20 23 
 24 27 28 30 31 33 35 40 41 47 49 50 
 54 56 59 60 61 62 63 64 66 67 68 69 
 72 74 76 77 79 80 81 
 34 
 2 7 8 10 15 17 19 20 21 24 28 30 
 32 35 37 41 45 47 48 49 50 52 53 56 
 60 61 67 68 69 73 74 77 78 81 
 71 
 1 2 3 4 5 6 7 8 9 10 11 13 
 14 15 16 17 19 20 21 23 24 25 26 27 
 28 30 31 32 33 34 35 36 37 38 40 41 
 42 43 44 45 46 48 49 50 52 53 54 55 
 56 57 58 59 60 61 62 63 64 65 66 67 
 68 69 70 72 75 76 77 78 79 80 81 
 69 
 1 2 3 4 5 6 7 8 9 10 11 12 
 13 14 15 16 17 18 19 20 21 22 24 26 
 28 29 30 33 34 35 36 38 39 40 41 42 
 43 44 45 46 47 48 49 50 51 52 53 54 
 58 59 60 61 63 64 65 66 68 69 70 71 
 72 73 74 75 77 78 79 80 81 
 34 
 1 3 5 9 10 12 15 17 21 27 29 30 
 34 35 37 43 45 46 47 49 50 51 53 54 
 56 57 60 63 65 67 70 71 75 80 
 71 
 1 2 3 4 7 8 9 10 12 14 15 16 
 17 18 19 20 21 22 23 24 26 27 29 30 
 31 32 33 34 35 36 37 38 39 40 41 42 
 43 44 45 46 47 48 49 50 51 52 53 55 
 56 57 58 60 61 62 63 65 66 67 68 70 
 71 72 73 74 75 76 77 78 79 80 81 
 48 
 2 3 8 9 10 11 12 15 16 18 19 22 
 23 26 27 28 29 30 33 34 35 36 37 39 
 41 42 48 50 51 52 54 55 57 59 61 63 
 64 65 67 68 69 71 72 74 75 77 80 81 
 29 
 1 2 3 9 13 14 16 19 23 25 26 27 
 28 30 33 34 35 38 44 45 52 55 57 58 
 63 64 69 72 77 
 3 
 64 66 79 
 19 
 4 5 9 15 17 26 32 36 38 39 55 58 
 60 64 68 70 72 79 81 
 42 
 3 6 7 10 14 16 23 25 27 28 29 30 
 32 33 34 36 37 38 39 40 44 45 46 47 
 50 51 53 55 57 61 63 64 65 66 68 69 
 71 74 75 76 77 80 
 4 
 6 8 15 79 
 49 
 2 5 7 14 15 16 17 19 20 23 24 26 
 27 28 30 32 33 34 38 39 40 42 43 45 
 46 48 49 50 54 55 56 58 59 61 62 64 
 66 68 69 70 71 72 73 75 77 78 79 80 
 81 
 53 
 2 7 9 10 11 12 13 14 15 16 17 19 
 20 21 23 25 26 28 29 31 32 34 35 36 
 38 41 42 43 44 45 47 48 50 51 52 53 
 55 56 59 61 63 65 66 67 72 73 74 75 
 76 77 79 80 81 
 8 
 24 37 40 61 63 68 73 75 
 7 
 12 13 17 20 25 34 46 
 59 
 1 2 3 4 5 7 8 9 10 11 12 13 
 14 15 16 18 20 21 22 24 25 28 29 30 
 32 33 34 35 37 38 39 41 42 43 44 45 
 47 48 49 50 52 53 55 57 58 59 61 62 
 63 64 65 71 72 73 75 76 78 80 81 
 42 
 1 5 9 11 12 14 15 16 18 19 21 28 
 29 30 32 35 37 38 39 40 42 45 46 47 
 49 50 51 52 57 61 63 64 66 68 69 71 
 74 75 76 77 78 79 
 21 
 1 4 6 12 14 17 19 21 23 26 31 33 
 39 43 55 56 67 70 73 74 80 
 47 
 1 3 4 6 7 8 9 10 12 13 15 17 
 20 21 23 24 25 29 33 35 37 38 44 47 
 49 52 53 55 56 57 58 59 62 63 64 66 
 67 68 69 70 72 73 74 77 79 80 81 
 59 
 1 2 3 5 7 9 10 11 12 13 14 19 
 20 21 22 23 24 25 26 28 29 30 31 33 
 35 36 37 38 40 41 43 44 45 46 49 51 
 52 53 54 57 58 59 62 63 65 66 67 68 
 69 70 71 72 73 75 76 77 78 79 81 
 20 
 1 9 10 13 15 17 21 31 34 40 41 49 
 50 52 57 59 62 64 69 79 
 64 
 1 2 3 4 5 6 7 8 9 10 11 12 
 13 14 15 16 17 18 19 20 21 22 23 24 
 27 28 30 31 32 34 35 37 38 39 40 41 
 44 46 47 50 51 52 53 54 55 56 57 58 
 60 62 64 65 66 67 68 69 70 72 73 74 
 75 77 79 81 
 61 
 1 2 3 4 5 6 7 8 9 12 14 15 
 16 17 18 20 21 22 23 24 25 26 28 29 
 30 34 37 38 39 40 41 42 43 44 45 46 
 47 49 50 51 52 53 57 58 59 60 61 63 
 64 65 66 67 68 71 72 73 74 76 78 79 
 81 
 55 
 2 3 5 6 9 10 11 12 13 14 15 17 
 19 21 23 24 25 27 28 30 34 35 38 39 
 44 45 47 48 49 50 52 53 55 56 57 58 
 59 61 62 64 65 66 68 69 70 71 73 74 
 75 76 77 78 79 80 81 
 37 
 4 5 6 9 10 12 13 14 15 18 19 20 
 23 25 27 29 33 36 41 43 44 45 48 49 
 50 55 58 60 63 66 69 70 71 73 77 79 
 80 
 25 
 1 6 9 11 23 24 25 26 34 35 36 39 
 40 45 49 53 56 57 59 61 64 68 69 72 
 79 
 24 
 2 3 5 6 12 13 14 17 23 24 25 32 
 33 34 38 42 43 45 48 49 51 64 65 67 
 51 
 1 2 3 4 5 7 9 10 14 16 17 18 
 19 22 24 25 26 27 28 29 32 33 34 40 
 41 42 43 45 46 47 48 49 51 52 53 55 
 56 58 60 64 65 66 68 70 71 72 74 75 
 76 78 81 
 66 
 1 2 4 5 6 7 8 9 10 11 12 13 
 14 16 17 18 19 21 22 23 24 25 28 29 
 30 31 32 33 34 35 36 37 38 39 40 41 
 42 43 44 45 46 47 50 51 52 54 55 56 
 57 59 60 61 63 64 66 68 71 72 73 75 
 76 77 78 79 80 81 
 14 
 8 12 15 16 21 32 38 47 49 50 69 71 
 72 78 
 41 
 1 2 3 6 7 8 14 17 18 21 22 26 
 27 29 30 32 33 34 36 38 39 44 45 46 
 47 50 52 56 58 60 62 63 64 68 69 73 
 76 77 78 79 81 
 44 
 1 5 7 8 9 10 11 12 14 15 17 19 
 22 23 25 28 29 32 33 35 36 38 39 41 
 42 46 47 49 52 55 56 58 61 62 66 67 
 68 70 71 74 75 78 79 80 
 3 
 7 40 49 
 72 
 1 2 3 5 6 7 8 9 10 11 12 13 
 15 16 17 18 19 20 21 22 23 24 26 28 
 31 32 33 34 35 36 37 38 39 40 41 42 
 43 44 45 46 47 49 50 51 52 53 54 55 
 56 57 58 59 60 62 63 64 65 66 67 68 
 70 71 72 73 74 75 76 77 78 79 80 81 
 65 
 1 2 3 4 5 6 7 8 9 10 12 13 
 14 15 16 17 18 19 20 22 23 24 25 26 
 27 28 29 30 31 32 37 39 41 42 43 44 
 45 46 48 49 50 51 52 54 55 56 57 58 
 60 61 62 63 65 66 67 68 69 70 72 73 
 74 75 77 79 81 
 46 
 1 5 6 7 8 11 12 14 15 16 17 18 
 19 26 27 28 30 32 33 34 35 36 37 39 
 41 42 44 46 49 50 51 54 56 57 59 62 
 63 64 65 66 69 71 74 76 77 79 
 32 
 3 6 13 14 15 16 17 18 22 27 28 29 
 31 32 35 36 43 44 48 52 54 56 57 58 
 60 66 67 70 73 74 75 78 
 71 
 1 2 3 5 6 7 8 9 10 11 12 13 
 14 15 16 17 18 19 20 21 22 23 24 25 
 26 28 29 30 31 32 33 34 35 36 37 38 
 39 40 41 43 44 45 46 47 48 51 53 55 
 56 57 58 59 60 62 63 64 65 66 67 68 
 70 71 72 73 74 75 77 78 79 80 81 
 75 
 1 2 3 5 6 7 8 9 10 11 12 13 
 14 15 17 18 19 20 21 22 23 24 25 26 
 27 28 29 30 31 32 34 36 37 38 39 40 
 41 42 43 44 45 46 47 48 49 50 51 52 
 53 54 55 56 57 58 59 60 61 62 63 64 
 65 66 67 69 71 72 73 74 75 76 77 78 
 79 80 81 
 56 
 1 4 5 6 7 8 11 13 14 15 16 17 
 18 19 21 22 23 24 25 26 32 35 36 38 
 39 40 41 42 43 44 45 46 47 51 53 54 
 56 58 59 60 61 62 63 64 65 67 68 69 
 70 72 74 76 77 78 80 81 
 14 
 4 5 8 12 22 30 32 34 45 49 52 54 
 65 81 
 56 
 1 2 5 6 8 9 10 11 12 13 14 15 
 16 17 19 20 22 23 24 26 28 30 31 32 
 33 34 36 38 40 41 42 43 44 45 47 48 
 50 51 54 55 56 58 60 63 65 68 69 70 
 71 72 73 75 77 79 80 81 
 64 
 1 2 3 5 6 7 8 9 10 11 12 13 
 14 16 17 18 19 20 21 22 23 24 26 30 
 31 32 33 34 35 37 38 41 42 43 44 45 
 46 47 48 49 50 51 53 54 55 56 58 59 
 60 61 63 64 65 66 67 68 69 70 71 72 
 73 75 76 80 
 58 
 1 2 4 5 6 7 10 13 15 18 19 20 
 21 22 23 24 25 26 27 28 29 30 32 34 
 36 37 38 40 41 42 45 46 47 48 52 53 
 54 55 57 59 61 62 63 65 66 67 68 69 
 70 71 73 74 75 76 77 78 80 81 
 47 
 2 8 9 12 14 15 16 17 18 19 20 21 
 22 24 26 28 29 30 31 34 35 36 38 39 
 41 43 45 47 48 49 50 52 54 55 56 58 
 59 61 62 64 67 68 71 73 76 79 81 
 35 
 1 2 7 8 10 11 13 15 21 25 27 28 
 31 32 33 35 38 45 46 48 49 50 53 54 
 62 63 65 66 68 72 73 74 76 77 78 
 13 
 1 13 15 25 30 32 40 41 49 57 63 67 
 73 
 74 
 1 2 4 5 6 7 8 10 11 12 13 14 
 15 16 17 18 19 20 21 22 23 24 26 27 
 28 29 30 31 32 33 34 35 36 37 38 39 
 40 41 42 43 44 46 47 48 49 50 51 52 
 53 54 55 57 59 60 61 62 63 64 65 66 
 67 68 69 70 71 72 73 74 75 77 78 79 
 80 81 
 75 
 1 2 3 4 5 6 7 8 9 10 11 12 
 13 14 15 16 17 18 19 20 21 22 23 25 
 26 27 28 29 30 31 32 33 34 35 36 37 
 38 39 40 41 42 44 45 46 47 48 49 50 
 51 52 53 54 56 57 58 59 60 61 63 65 
 66 67 68 69 70 71 72 73 74 75 76 78 
 79 80 81 
 7 
 13 15 22 32 52 54 60 
 76 
 1 2 4 5 7 8 9 10 11 12 13 14 
 15 16 17 18 20 21 22 23 24 25 26 27 
 28 29 30 31 32 33 34 35 36 37 38 39 
 40 41 42 43 44 45 46 47 48 49 50 51 
 52 53 55 56 57 58 59 60 61 62 63 64 
 65 66 67 68 69 70 71 72 73 74 75 76 
 78 79 80 81 
 28 
 3 9 10 12 13 14 23 25 27 28 31 33 
 34 36 38 39 40 42 43 50 51 55 59 72 
 73 75 77 79 
 13 
 2 10 31 37 39 42 58 59 63 71 74 75 
 79 
 32 
 3 7 11 12 13 17 18 19 21 23 28 31 
 34 35 39 42 46 52 53 54 58 61 62 64 
 65 66 67 70 72 73 78 79 
 69 
 2 3 4 5 6 7 8 9 10 12 13 14 
 15 16 17 18 20 24 25 26 27 28 29 31 
 32 33 34 35 36 37 38 39 41 42 44 45 
 46 47 48 49 51 52 53 54 55 56 57 58 
 60 61 62 63 64 65 66 67 68 69 71 72 
 73 74 75 76 77 78 79 80 81 
 33 
 4 7 8 15 16 17 19 21 22 23 26 31 
 36 40 44 45 47 48 49 51 55 56 58 61 
 62 66 69 73 75 76 78 79 81 
 35 
 1 4 7 10 11 14 16 17 20 22 23 24 
 26 28 29 32 34 35 37 38 41 44 49 50 
 51 54 55 56 59 65 66 67 69 71 75 
 13 
 3 4 5 11 20 21 29 36 41 44 50 53 
 66 
 21 
 3 5 9 10 11 15 16 28 34 39 43 44 
 48 54 57 59 62 71 75 77 81 
 37 
 2 3 6 9 11 18 19 21 24 31 33 36 
 37 39 40 41 44 45 48 49 50 51 52 55 
 56 57 58 60 62 65 68 69 71 72 74 77 
 81 
 2 
 51 63 
 52 
 2 3 4 5 9 10 11 12 13 16 17 18 
 20 25 26 27 29 30 31 32 33 34 36 37 
 38 39 40 43 44 46 47 49 50 53 54 55 
 58 60 62 64 65 66 67 68 69 71 72 74 
 77 78 80 81 
 62 
 1 3 4 6 7 9 10 11 12 14 15 16 
 17 18 19 20 21 22 23 24 25 26 27 29 
 30 31 32 34 35 36 37 39 40 41 42 43 
 46 47 48 49 50 52 53 55 57 58 59 60 
 61 63 64 67 68 70 72 74 75 76 77 78 
 80 81 
 75 
 1 2 3 5 6 7 8 9 10 11 12 13 
 14 15 16 18 19 20 23 24 25 26 27 28 
 29 30 31 32 33 34 35 36 37 38 39 40 
 41 42 43 44 45 46 47 48 49 50 51 52 
 53 54 55 56 57 58 60 61 62 63 64 65 
 66 67 68 69 70 71 72 74 75 76 77 78 
 79 80 81 
 66 
 1 2 3 4 5 6 7 8 9 10 11 14 
 15 16 17 18 19 21 22 23 26 27 28 29 
 30 31 32 34 35 36 37 40 41 42 46 47 
 48 49 50 51 52 55 56 57 58 59 60 61 
 62 65 66 67 68 69 70 71 72 73 74 75 
 76 77 78 79 80 81 
 18 
 4 10 15 16 19 26 27 45 46 48 49 57 
 58 61 64 70 74 81 
 11 
 3 17 24 30 37 44 48 62 73 76 79 
 5 
 27 33 38 39 43 
 55 
 1 2 3 4 5 6 9 10 12 13 14 15 
 16 17 18 20 24 25 27 28 29 30 31 34 
 36 37 38 39 40 41 43 44 45 46 53 54 
 55 56 57 58 60 61 65 66 67 71 72 73 
 74 75 76 77 79 80 81 
 15 
 3 9 13 19 33 39 48 49 50 59 61 63 
 71 79 81 
 32 
 3 5 6 7 10 16 25 26 28 30 31 33 
 34 42 44 45 46 47 50 51 52 54 55 57 
 59 64 65 69 71 73 74 77 
 29 
 5 7 8 11 16 18 23 25 26 28 30 32 
 36 39 40 42 43 46 47 48 49 50 53 65 
 68 72 73 74 81 
 40 
 6 7 9 10 12 13 14 15 17 21 25 27 
 28 30 31 32 35 36 37 39 42 43 44 45 
 46 48 51 52 56 58 59 60 64 65 67 69 
 70 76 78 79 
 17 
 4 15 25 28 37 42 43 45 47 48 57 64 
 67 70 72 75 79 
 49 
 2 8 9 10 12 13 14 16 17 18 19 20 
 22 23 24 26 27 31 32 33 34 35 38 39 
 40 41 43 44 46 49 51 53 55 56 60 62 
 64 66 67 68 69 70 71 72 73 76 77 79 
 81 
 5 
 12 18 31 38 51 
 23 
 1 6 7 8 11 12 13 14 16 17 20 21 
 22 41 43 45 47 50 52 57 64 73 80 
 76 
 1 2 5 6 7 8 9 10 11 12 13 14 
 16 17 18 19 20 21 22 23 24 25 26 27 
 28 29 30 31 32 33 34 35 36 37 38 39 
 41 42 43 45 46 47 48 49 50 51 52 53 
 54 55 56 57 58 59 60 61 62 63 64 65 
 66 67 68 69 70 71 72 73 74 75 76 77 
 78 79 80 81 
 20 
 9 17 29 30 31 32 33 43 46 54 56 60 
 61 63 68 70 72 74 76 80 
 32 
 1 4 5 7 8 11 18 21 25 27 32 36 
 37 38 39 40 42 43 46 52 56 58 60 64 
 67 70 73 74 75 77 79 81 
 47 
 1 2 6 7 9 12 14 15 17 18 19 20 
 21 22 23 25 27 30 32 33 35 36 38 39 
 40 41 42 43 45 46 47 48 49 50 51 54 
 58 59 61 63 64 65 72 73 75 79 81 
 14 
 9 12 13 14 15 22 28 37 40 53 54 71 
 77 79 
 74 
 1 2 3 4 5 6 7 8 9 10 11 12 
 13 14 15 16 17 18 20 21 22 23 24 25 
 26 27 28 29 30 31 32 33 34 35 36 37 
 38 39 40 41 43 44 46 47 48 50 51 52 
 53 54 55 56 57 58 59 60 62 63 64 65 
 66 67 68 69 70 72 73 74 76 77 78 79 
 80 81 
 4 
 19 22 26 62 
 12 
 2 27 28 30 32 33 56 59 65 73 79 80 
 47 
 3 4 6 7 8 9 13 17 18 20 23 24 
 28 29 30 34 35 37 38 40 43 44 45 50 
 51 52 53 54 55 57 58 60 61 62 63 64 
 69 71 72 73 74 75 77 78 79 80 81 
 60 
 2 3 4 5 6 7 8 9 10 12 13 14 
 16 17 18 20 22 23 24 25 26 27 28 29 
 30 31 34 36 37 38 39 40 41 44 45 48 
 50 51 52 53 54 55 56 57 58 62 63 64 
 65 67 68 70 71 73 74 75 78 79 80 81 
 18 
 3 8 9 11 15 19 20 23 24 41 46 47 
 49 59 64 67 70 75 
 55 
 1 2 5 6 7 8 11 12 13 15 16 17 
 18 21 22 28 29 30 32 33 35 37 38 39 
 40 42 44 46 47 48 49 50 51 52 53 56 
 57 59 60 61 62 63 64 66 67 68 69 70 
 73 74 75 76 77 78 81 
 5 
 7 15 28 52 65 
 44 
 1 3 4 5 6 7 8 12 13 14 18 20 
 21 22 24 25 28 32 33 35 38 39 40 44 
 45 46 47 49 51 53 57 58 59 61 62 68 
 71 72 73 76 78 79 80 81 
 2 
 53 56 
 25 
 5 7 14 17 18 19 20 28 35 37 39 41 
 45 47 48 50 53 55 56 60 64 65 74 76 
 80 
 25 
 2 3 16 17 20 21 26 27 28 34 36 40 
 41 50 51 52 54 55 56 61 66 67 71 76 
 77 
 65 
 1 2 3 4 5 6 8 9 10 11 13 14 
 15 16 17 18 19 20 21 22 23 24 26 27 
 28 30 31 32 33 34 36 37 38 39 41 42 
 43 44 47 48 49 50 52 53 56 57 58 59 
 61 63 64 65 66 68 69 70 71 72 74 75 
 76 78 79 80 81 
 6 
 28 30 34 63 66 69 
 42 
 4 5 8 9 11 15 16 17 20 23 27 30 
 32 33 34 36 37 39 40 41 45 46 47 48 
 51 52 53 54 55 56 62 64 65 66 67 69 
 70 72 75 77 78 79 
 64 
 1 2 3 4 6 8 9 11 12 14 15 16 
 17 18 19 20 21 22 23 24 25 26 32 33 
 35 37 38 39 40 41 42 43 44 45 46 47 
 48 50 51 53 54 55 56 58 60 61 62 63 
 64 65 66 67 68 69 70 71 72 73 74 75 
 77 78 79 80 
 35 
 1 5 6 8 9 12 13 15 16 19 24 25 
 26 29 31 33 34 35 37 45 48 51 53 55 
 57 58 59 61 62 65 66 73 75 77 80 
 64 
 2 3 4 5 6 7 8 9 10 11 14 15 
 16 17 18 20 21 22 24 25 26 27 28 29 
 30 31 32 33 34 35 36 37 38 39 41 42 
 44 45 46 47 49 53 54 55 57 58 59 60 
 61 62 63 64 65 66 67 69 71 72 73 74 
 75 77 78 79 
 71 
 1 2 3 4 5 6 7 8 10 11 12 13 
 14 15 18 19 21 22 23 24 25 26 27 28 
 30 31 32 33 34 35 36 38 39 40 42 43 
 44 45 47 48 49 50 51 52 53 54 55 56 
 57 58 59 60 62 63 65 66 67 68 69 70 
 71 72 73 74 75 76 77 78 79 80 81 
 79 
 1 2 3 4 5 6 7 8 9 10 11 12 
 13 14 15 16 17 18 19 20 21 22 23 24 
 25 26 27 28 29 30 31 32 33 34 35 36 
 37 38 39 40 41 42 43 44 45 46 47 48 
 49 50 51 52 54 55 56 57 58 59 60 61 
 63 64 65 66 67 68 69 70 71 72 73 74 
 75 76 77 78 79 80 81 
 45 
 1 3 5 6 7 8 9 10 15 16 17 18 
 21 25 26 27 28 31 34 35 36 38 41 43 
 44 45 46 47 48 50 51 53 55 56 58 60 
 61 63 67 69 70 73 75 76 77 
 55 
 1 2 5 6 7 8 10 11 12 13 14 18 
 19 20 23 26 27 28 30 31 32 34 38 41 
 42 43 44 45 46 47 48 49 50 52 53 54 
 55 57 58 59 60 62 63 65 66 68 70 71 
 72 73 74 76 78 79 80 
 62 
 2 3 5 7 8 10 11 12 13 15 19 20 
 21 22 23 25 29 30 31 33 34 35 36 37 
 38 39 40 43 44 45 46 47 48 50 51 52 
 53 55 56 57 58 59 60 61 62 63 64 65 
 66 67 68 69 70 71 72 73 74 77 78 79 
 80 81 
 33 
 2 4 6 10 12 14 15 17 19 22 24 29 
 32 35 37 38 39 41 45 48 53 57 60 61 
 62 64 66 69 73 77 78 79 81 
 45 
 3 6 8 9 10 11 12 16 21 22 23 25 
 27 28 29 32 33 34 35 36 38 40 41 43 
 46 48 49 50 53 55 56 60 62 63 65 66 
 67 68 69 70 73 74 76 78 81 
 27 
 9 10 12 14 15 18 19 20 22 24 32 34 
 36 38 39 43 49 50 52 54 56 62 64 66 
 71 74 76 
 55 
 1 3 4 6 7 8 9 10 11 12 15 16 
 17 18 19 20 21 22 23 24 26 28 34 36 
 37 38 41 42 43 44 45 46 48 49 51 52 
 56 58 59 60 61 62 63 64 66 68 70 71 
 72 73 74 75 77 80 81 
 70 
 1 2 4 5 6 7 8 9 11 13 14 15 
 16 17 19 20 21 22 23 24 25 26 27 28 
 29 30 31 32 33 34 35 36 37 38 39 40 
 41 43 44 46 47 48 49 50 51 53 54 55 
 56 57 58 59 60 61 62 63 64 65 66 69 
 72 73 74 75 76 77 78 79 80 81 
 45 
 2 4 6 8 9 11 12 14 15 17 18 20 
 21 23 24 25 27 28 29 31 32 33 34 36 
 38 40 41 42 48 50 52 54 56 59 60 63 
 64 66 69 70 71 72 74 76 77 
 71 
 1 2 3 5 6 7 8 9 10 11 12 13 
 14 15 16 17 18 19 21 22 23 24 26 27 
 29 30 31 32 33 34 36 37 38 39 40 41 
 42 43 44 45 46 47 48 49 50 51 53 54 
 55 56 57 59 60 61 62 63 64 65 66 68 
 69 70 71 72 74 75 76 77 79 80 81 
 10 
 1 2 4 11 14 26 33 38 68 71 
 26 
 1 8 12 18 25 27 35 37 42 45 48 49 
 50 53 55 62 64 66 67 70 71 73 74 76 
 79 80 
 44 
 1 2 3 5 6 8 11 12 14 18 19 20 
 22 23 24 26 31 32 33 37 38 39 43 44 
 45 47 50 51 52 53 54 57 59 62 65 66 
 67 69 71 74 76 78 79 81 
 34 
 2 4 6 8 9 16 18 21 22 23 25 26 
 28 30 31 34 39 40 41 43 47 48 53 62 
 63 64 67 69 71 74 76 78 79 81 
 71 
 1 3 4 5 6 7 8 10 11 12 13 15 
 16 17 19 20 21 22 23 24 25 26 27 28 
 29 30 31 33 34 35 36 37 38 39 40 41 
 42 43 44 45 46 47 48 49 51 52 54 55 
 56 57 58 59 60 61 62 63 64 66 67 68 
 69 70 71 72 73 75 76 77 79 80 81 
 35 
 2 4 5 6 10 15 18 19 20 23 24 27 
 29 31 33 36 38 39 41 42 44 46 48 54 
 55 58 62 63 65 68 73 76 77 78 79 
 33 
 3 4 8 10 11 14 17 18 20 23 27 31 
 36 39 40 42 43 44 50 51 56 57 58 59 
 60 62 70 71 72 76 77 78 79 
 20 
 1 2 5 6 10 11 15 20 30 34 36 40 
 48 66 69 72 73 77 78 79 
 72 
 2 3 5 6 7 8 9 10 11 12 13 14 
 15 16 17 18 19 20 21 22 23 24 25 26 
 27 28 30 31 32 33 34 35 36 37 38 40 
 42 43 45 46 47 48 49 50 51 52 53 55 
 56 57 58 59 60 61 62 63 64 65 66 67 
 68 69 70 73 74 75 76 77 78 79 80 81 
 14 
 5 8 24 35 41 43 50 53 61 74 76 78 
 80 81 
 75 
 1 2 3 4 5 6 7 8 9 10 12 15 
 16 17 18 19 20 21 22 23 24 25 26 27 
 28 29 30 31 33 34 35 36 37 38 39 40 
 41 42 43 45 46 47 48 49 50 51 52 53 
 54 55 56 57 58 59 61 62 63 64 65 66 
 67 68 69 70 71 72 73 74 75 76 77 78 
 79 80 81 
 